Al4 Ni4
1.0
5.905482 0.000000 0.000000
-0.000000 3.584540 0.000000
-2.464177 -0.000000 4.578934
Ni Al Ni Al Ni
2 3 1 1 1
direct
0.595702 0.176304 0.228367 Ni
0.341657 0.676304 0.352839 Ni
0.824438 0.676304 0.576332 Al
0.580691 0.176304 0.738274 Al
0.077944 0.176304 0.446586 Al
0.336293 0.676304 0.842711 Ni
0.126352 0.176304 0.986085 Al
0.842499 0.676304 0.082860 Ni
