Cd2 Te2 Mo2 O12                         
   1.00000000000000     
     5.3096538584520294    0.0000000000000000    0.0000000000000000
     0.0000000000000000    5.3096538584520294    0.0000000000000000
     0.0000000000000000    0.0000000000000000   27.9829019999999993
   Cd   Mo   O    Te
     2     2    12     2
Direct
  0.0000000000000000  0.0000000000000000  0.1669869999999989
  0.5000000000000000  0.5000000000000000  0.1669869999999989
  0.0000000000000000  0.5000000000000000  0.0620480382237346
  0.5000000000000000  0.0000000000000000  0.2719259617762632
  0.3071328513014820  0.1928671486985180  0.1262847909903780
  0.6928671486985181  0.8071328513014819  0.1262847909903780
  0.1928671486985180  0.6928671486985181  0.2076892090096198
  0.8071328513014819  0.3071328513014820  0.2076892090096198
  0.7808168506429134  0.2808168506429135  0.0954580203032081
  0.2191831493570866  0.7191831493570866  0.0954580203032081
  0.7191831493570866  0.7808168506429134  0.2385159796967967
  0.2808168506429135  0.2191831493570866  0.2385159796967967
  0.8148985001631971  0.6851014998368029  0.0247820595323802
  0.1851014998368028  0.3148985001631972  0.0247820595323802
  0.3148985001631972  0.8148985001631971  0.3091919404676247
  0.6851014998368029  0.1851014998368028  0.3091919404676247
  0.5000000000000000  0.0000000000000000  0.0814462276800591
  0.0000000000000000  0.5000000000000000  0.2525277723199386
 
  0.00000000E+00  0.00000000E+00  0.00000000E+00
  0.00000000E+00  0.00000000E+00  0.00000000E+00
  0.00000000E+00  0.00000000E+00  0.00000000E+00
  0.00000000E+00  0.00000000E+00  0.00000000E+00
  0.00000000E+00  0.00000000E+00  0.00000000E+00
  0.00000000E+00  0.00000000E+00  0.00000000E+00
  0.00000000E+00  0.00000000E+00  0.00000000E+00
  0.00000000E+00  0.00000000E+00  0.00000000E+00
  0.00000000E+00  0.00000000E+00  0.00000000E+00
  0.00000000E+00  0.00000000E+00  0.00000000E+00
  0.00000000E+00  0.00000000E+00  0.00000000E+00
  0.00000000E+00  0.00000000E+00  0.00000000E+00
  0.00000000E+00  0.00000000E+00  0.00000000E+00
  0.00000000E+00  0.00000000E+00  0.00000000E+00
  0.00000000E+00  0.00000000E+00  0.00000000E+00
  0.00000000E+00  0.00000000E+00  0.00000000E+00
  0.00000000E+00  0.00000000E+00  0.00000000E+00
  0.00000000E+00  0.00000000E+00  0.00000000E+00
